144
10000
797
646
99
652
1037
1938
1010
1629
1021
257
4485
4149
1851
4818
766
982
2319
865
678
3790
4969
443
3565
1045
2983
4935
1298
668
538
1145
3183
814
1738
919
332
734
2615
673
1235
785
1762
4339
2330
3841
1125
1098
3850
1593
4466
543
2726
1165
366
917
1787
1470
463
4644
2649
1151
2989
1528
2268
3732
1416
1551
2208
3925
4278
4239
3022
1464
3232
1956
3570
179
3248
696
4982
4848
4389
3398
39
3112
1386
1
3933
1011
1400
1382
1036
1289
1720
2074
3967
2951
3471
1889
2234
546
2413
1980
1653
360
962
2548
538
3533
1518
403
3330
1183
2719
3599
386
2425
3559
2261
2122
1759
4650
2050
1674
154
4659
2370
3226
2164
1439
44
4190
1276
3105
4143
934
799
531
85
3383
1464
2907
3898
533
3821
